63
125
87	8
86	7
85	6
84	7
83	9
82	8
81	6
80	4
79	5
78	5
77	7
76	6
75	16
74	11
73	4
72	8
71	5
70	6
69	11
68	10
67	2
66	6
65	9
64	8
63	6
62	9
61	5
60	6
59	8
58	14
57	5
56	9
55	11
54	7
53	9
52	14
51	14
50	8
49	12
48	3
47	5
46	7
45	8
44	3
43	7
42	6
41	7
40	8
39	3
38	7
37	14
36	13
35	8
34	13
33	9
32	12
31	9
30	9
29	6
28	9
27	8
26	6
25	9
